Maximize
obj: 5 x0 + 4 x1 + 0 x2 + 9 x3 + 6 x4 + 4 x5 + 4 x6 + 8 x7 + 5 x8 + 5 x9 + 8 x10 + 4 x11 + 9 x12 + 3 x13 + 1 x14 + 7 x15 + 6 x16 + 8 x17 + 8 x18 + 3 x19 + 5 x20 + 4 x21 + 2 x22 
Subject To
57 x0 + 57 x1 + 87 x2 + 90 x3  <= 113
43 x0 + 44 x1 + 0 x2 + 0 x3  <= 705
477 x4 + 477 x5 + 621 x6 + 841 x7  <= 953
0 x4 + 0 x5 + 0 x6 + 0 x7  <= 524
6 x4 + 12 x5 + 482 x6 + 482 x7  <= 963
0 x4 + 0 x5 + 0 x6 + 0 x7  <= 86
306 x8 + 306 x9 + 407 x10 + 588 x11 + 229 x12  <= 611
0 x8 + 0 x9 + 0 x10 + 0 x11 + 0 x12  <= 979
15 x8 + 350 x9 + 351 x10 + 0 x11 + 0 x12  <= 700
0 x8 + 0 x9 + 0 x10 + 399 x11 + 398 x12  <= 796
21 x13 + 21 x14 + 187 x15 + 183 x16 + 48 x17 + 86 x18  <= 188
488 x13 + 487 x14 + 30 x15 + 16 x16 + 488 x17 + 487 x18  <= 974
200 x19 + 0 x20 + 200 x21 + 316 x22  <= 399
456 x19 + 902 x20 + 446 x21 + 480 x22  <= 925
Binaries
x0
x1
x2
x3
x4
x5
x6
x7
x8
x9
x10
x11
x12
x13
x14
x15
x16
x17
x18
x19
x20
x21
x22
End
